(set-info :source  loris-7.ddns.comp.nus.edu.sg/~project/hip/) 
;Variables declarations
(declare-fun flted_13_14024 () Int)
(declare-fun v_bool_314_3280_primed () Int)
(declare-fun bh_13923 () Int)
(declare-fun cl_13922 () Int)
(declare-fun Anon_13898 () Int)
(declare-fun n_13921 () Int)
(declare-fun tmp_primed () Int)
(declare-fun v_13891 () Int)
(declare-fun flted_13_13890 () Int)
(declare-fun n () Int)
(declare-fun nr_13897 () Int)
(declare-fun bhr_13899 () Int)
(declare-fun bh () Int)
(declare-fun x () Int)
(declare-fun cl () Int)
(declare-fun v_bool_310_3540_primed () Int)
(declare-fun v_int_315_3270_primed () Int)
(declare-fun r_13896 () Int)
(declare-fun Anon_13894 () Int)
(declare-fun bhl_13895 () Int)
(declare-fun nl_13893 () Int)
(declare-fun l_13892 () Int)
(declare-fun Anon_14028 () Int)
(declare-fun bhl_14029 () Int)
(declare-fun nl_14027 () Int)
(declare-fun l_14026 () Int)
(declare-fun Anon_14032 () Int)
(declare-fun bhr_14033 () Int)
(declare-fun nr_14031 () Int)
(declare-fun r_14030 () Int)
(declare-fun v_node_315_3275_primed () Int)
(declare-fun x_primed () Int)
;Relations declarations
;Axioms assertions
;Antecedent
(assert (= flted_13_14024 0))
(assert (= cl_13922 0))
(assert (= n_13921 (+ (+ nr_14031 1) nl_14027)))
(assert (= bhl_14029 bhr_14033))
(assert (= bh_13923 (+ bhl_14029 1)))
(assert (> v_bool_314_3280_primed 0))
(assert (<= cl_13922 1))
(assert (<= 0 cl_13922))
(assert (<= 1 bh_13923))
(assert (<= 0 n_13921))
(assert (= cl_13922 1))
(assert (<= Anon_13898 1))
(assert (<= 0 Anon_13898))
(assert (<= 1 bhr_13899))
(assert (<= 0 nr_13897))
(assert (= bh_13923 bhr_13899))
(assert (= cl_13922 Anon_13898))
(assert (= n_13921 nr_13897))
(assert (= tmp_primed v_13891))
(assert (= flted_13_13890 0))
(assert (= cl 0))
(assert (= n (+ (+ nr_13897 1) nl_13893)))
(assert (= bhl_13895 bhr_13899))
(assert (= bh (+ bhl_13895 1)))
(assert (= x_primed x))
(assert (> x 0))
(assert (<= 0 cl))
(assert (<= cl 1))
(assert (< l_13892 1))
(assert (> v_bool_310_3540_primed 0))
(assert (= v_int_315_3270_primed 0))
(assert (= v_node_315_3275_primed r_13896))
(assert (or (and (and (and (= Anon_13894 0) (<= 2 bhl_13895)) (<= 1 nl_13893)) (> l_13892 0)) (or (and (and (and (< l_13892 1) (= nl_13893 0)) (= bhl_13895 1)) (= Anon_13894 0)) (and (and (and (= Anon_13894 1) (<= 1 bhl_13895)) (<= 1 nl_13893)) (> l_13892 0)))))
(assert (= v_node_315_3275_primed 1))
(assert (or (and (and (and (= Anon_14028 0) (<= 2 bhl_14029)) (<= 1 nl_14027)) (> l_14026 0)) (or (and (and (and (< l_14026 1) (= nl_14027 0)) (= bhl_14029 1)) (= Anon_14028 0)) (and (and (and (= Anon_14028 1) (<= 1 bhl_14029)) (<= 1 nl_14027)) (> l_14026 0)))))
(assert (or (and (and (and (= Anon_14032 0) (<= 2 bhr_14033)) (<= 1 nr_14031)) (> r_14030 0)) (or (and (and (and (< r_14030 1) (= nr_14031 0)) (= bhr_14033 1)) (= Anon_14032 0)) (and (and (and (= Anon_14032 1) (<= 1 bhr_14033)) (<= 1 nr_14031)) (> r_14030 0)))))
(assert (= x_primed 2))
(assert (not (= v_node_315_3275_primed x_primed)))
;Negation of Consequence
(assert (not false))
(check-sat)